p cnf 386 460
4 -18 19 21 22 0
4 -18 19 21 -22 0
4 -18 19 -21 23 0
4 -18 19 -21 -23 0
3 18 -5 24 25 0
3 18 -5 24 -25 0
3 18 -5 -24 26 0
3 18 -5 -24 -26 0
-5 -8 -15 27 28 0
-5 -8 -15 27 -28 0
-5 -8 -15 -27 29 0
-5 -8 -15 -27 -29 0
-20 7 -16 30 31 0
-20 7 -16 30 -31 0
-20 7 -16 -30 32 0
-20 7 -16 -30 -32 0
10 -13 -7 33 34 0
10 -13 -7 33 -34 0
10 -13 -7 -33 35 0
10 -13 -7 -33 -35 0
-12 -9 17 36 37 0
-12 -9 17 36 -37 0
-12 -9 17 -36 38 0
-12 -9 17 -36 -38 0
17 19 5 39 40 0
17 19 5 39 -40 0
17 19 5 -39 41 0
17 19 5 -39 -41 0
-16 9 15 42 43 0
-16 9 15 42 -43 0
-16 9 15 -42 44 0
-16 9 15 -42 -44 0
11 -5 -14 45 46 0
11 -5 -14 45 -46 0
11 -5 -14 -45 47 0
11 -5 -14 -45 -47 0
18 -10 13 48 49 0
18 -10 13 48 -49 0
18 -10 13 -48 50 0
18 -10 13 -48 -50 0
-3 11 12 51 52 0
-3 11 12 51 -52 0
-3 11 12 -51 53 0
-3 11 12 -51 -53 0
-6 -17 -8 54 55 0
-6 -17 -8 54 -55 0
-6 -17 -8 -54 56 0
-6 -17 -8 -54 -56 0
-18 14 1 57 58 0
-18 14 1 57 -58 0
-18 14 1 -57 59 0
-18 14 1 -57 -59 0
-19 -15 10 60 61 0
-19 -15 10 60 -61 0
-19 -15 10 -60 62 0
-19 -15 10 -60 -62 0
12 18 -19 63 64 0
12 18 -19 63 -64 0
12 18 -19 -63 65 0
12 18 -19 -63 -65 0
-8 4 7 66 67 0
-8 4 7 66 -67 0
-8 4 7 -66 68 0
-8 4 7 -66 -68 0
-8 -9 4 69 70 0
-8 -9 4 69 -70 0
-8 -9 4 -69 71 0
-8 -9 4 -69 -71 0
7 17 -15 72 73 0
7 17 -15 72 -73 0
7 17 -15 -72 74 0
7 17 -15 -72 -74 0
12 -7 -14 75 76 0
12 -7 -14 75 -76 0
12 -7 -14 -75 77 0
12 -7 -14 -75 -77 0
-10 -11 8 78 79 0
-10 -11 8 78 -79 0
-10 -11 8 -78 80 0
-10 -11 8 -78 -80 0
2 -15 -11 81 82 0
2 -15 -11 81 -82 0
2 -15 -11 -81 83 0
2 -15 -11 -81 -83 0
9 6 1 84 85 0
9 6 1 84 -85 0
9 6 1 -84 86 0
9 6 1 -84 -86 0
-11 20 -17 87 88 0
-11 20 -17 87 -88 0
-11 20 -17 -87 89 0
-11 20 -17 -87 -89 0
9 -15 13 90 91 0
9 -15 13 90 -91 0
9 -15 13 -90 92 0
9 -15 13 -90 -92 0
12 -7 -17 93 94 0
12 -7 -17 93 -94 0
12 -7 -17 -93 95 0
12 -7 -17 -93 -95 0
-18 -2 20 96 97 0
-18 -2 20 96 -97 0
-18 -2 20 -96 98 0
-18 -2 20 -96 -98 0
20 12 4 99 100 0
20 12 4 99 -100 0
20 12 4 -99 101 0
20 12 4 -99 -101 0
19 11 14 102 103 0
19 11 14 102 -103 0
19 11 14 -102 104 0
19 11 14 -102 -104 0
-16 18 -4 105 106 0
-16 18 -4 105 -106 0
-16 18 -4 -105 107 0
-16 18 -4 -105 -107 0
-1 -17 -19 108 109 0
-1 -17 -19 108 -109 0
-1 -17 -19 -108 110 0
-1 -17 -19 -108 -110 0
-13 15 10 111 112 0
-13 15 10 111 -112 0
-13 15 10 -111 113 0
-13 15 10 -111 -113 0
-12 -14 -13 114 115 0
-12 -14 -13 114 -115 0
-12 -14 -13 -114 116 0
-12 -14 -13 -114 -116 0
12 -14 -7 117 118 0
12 -14 -7 117 -118 0
12 -14 -7 -117 119 0
12 -14 -7 -117 -119 0
-7 16 10 120 121 0
-7 16 10 120 -121 0
-7 16 10 -120 122 0
-7 16 10 -120 -122 0
6 10 7 123 124 0
6 10 7 123 -124 0
6 10 7 -123 125 0
6 10 7 -123 -125 0
20 14 -16 126 127 0
20 14 -16 126 -127 0
20 14 -16 -126 128 0
20 14 -16 -126 -128 0
-19 17 11 129 130 0
-19 17 11 129 -130 0
-19 17 11 -129 131 0
-19 17 11 -129 -131 0
-7 1 -20 132 133 0
-7 1 -20 132 -133 0
-7 1 -20 -132 134 0
-7 1 -20 -132 -134 0
-5 12 15 135 136 0
-5 12 15 135 -136 0
-5 12 15 -135 137 0
-5 12 15 -135 -137 0
-4 -9 -13 138 139 0
-4 -9 -13 138 -139 0
-4 -9 -13 -138 140 0
-4 -9 -13 -138 -140 0
12 -11 -7 141 142 0
12 -11 -7 141 -142 0
12 -11 -7 -141 143 0
12 -11 -7 -141 -143 0
-5 19 -8 144 145 0
-5 19 -8 144 -145 0
-5 19 -8 -144 146 0
-5 19 -8 -144 -146 0
1 16 17 147 148 0
1 16 17 147 -148 0
1 16 17 -147 149 0
1 16 17 -147 -149 0
20 -14 -15 150 151 0
20 -14 -15 150 -151 0
20 -14 -15 -150 152 0
20 -14 -15 -150 -152 0
13 -4 10 153 154 0
13 -4 10 153 -154 0
13 -4 10 -153 155 0
13 -4 10 -153 -155 0
14 7 10 156 157 0
14 7 10 156 -157 0
14 7 10 -156 158 0
14 7 10 -156 -158 0
-5 9 20 159 160 0
-5 9 20 159 -160 0
-5 9 20 -159 161 0
-5 9 20 -159 -161 0
10 1 -19 162 163 0
10 1 -19 162 -163 0
10 1 -19 -162 164 0
10 1 -19 -162 -164 0
-16 -15 -1 165 166 0
-16 -15 -1 165 -166 0
-16 -15 -1 -165 167 0
-16 -15 -1 -165 -167 0
16 3 -11 168 169 0
16 3 -11 168 -169 0
16 3 -11 -168 170 0
16 3 -11 -168 -170 0
-15 -10 4 171 172 0
-15 -10 4 171 -172 0
-15 -10 4 -171 173 0
-15 -10 4 -171 -173 0
4 -15 -3 174 175 0
4 -15 -3 174 -175 0
4 -15 -3 -174 176 0
4 -15 -3 -174 -176 0
-10 -16 11 177 178 0
-10 -16 11 177 -178 0
-10 -16 11 -177 179 0
-10 -16 11 -177 -179 0
-8 12 -5 180 181 0
-8 12 -5 180 -181 0
-8 12 -5 -180 182 0
-8 12 -5 -180 -182 0
14 -6 12 183 184 0
14 -6 12 183 -184 0
14 -6 12 -183 185 0
14 -6 12 -183 -185 0
1 6 11 186 187 0
1 6 11 186 -187 0
1 6 11 -186 188 0
1 6 11 -186 -188 0
-13 -5 -1 189 190 0
-13 -5 -1 189 -190 0
-13 -5 -1 -189 191 0
-13 -5 -1 -189 -191 0
-7 -2 12 192 193 0
-7 -2 12 192 -193 0
-7 -2 12 -192 194 0
-7 -2 12 -192 -194 0
1 -20 19 195 196 0
1 -20 19 195 -196 0
1 -20 19 -195 197 0
1 -20 19 -195 -197 0
-2 -13 -8 198 199 0
-2 -13 -8 198 -199 0
-2 -13 -8 -198 200 0
-2 -13 -8 -198 -200 0
15 18 4 201 202 0
15 18 4 201 -202 0
15 18 4 -201 203 0
15 18 4 -201 -203 0
-11 14 9 204 205 0
-11 14 9 204 -205 0
-11 14 9 -204 206 0
-11 14 9 -204 -206 0
-6 -15 -2 207 208 0
-6 -15 -2 207 -208 0
-6 -15 -2 -207 209 0
-6 -15 -2 -207 -209 0
5 -12 -15 210 211 0
5 -12 -15 210 -211 0
5 -12 -15 -210 212 0
5 -12 -15 -210 -212 0
-6 17 5 213 214 0
-6 17 5 213 -214 0
-6 17 5 -213 215 0
-6 17 5 -213 -215 0
-13 5 -19 216 217 0
-13 5 -19 216 -217 0
-13 5 -19 -216 218 0
-13 5 -19 -216 -218 0
20 -1 14 219 220 0
20 -1 14 219 -220 0
20 -1 14 -219 221 0
20 -1 14 -219 -221 0
9 -17 15 222 223 0
9 -17 15 222 -223 0
9 -17 15 -222 224 0
9 -17 15 -222 -224 0
-5 19 -18 225 226 0
-5 19 -18 225 -226 0
-5 19 -18 -225 227 0
-5 19 -18 -225 -227 0
-12 8 -10 228 229 0
-12 8 -10 228 -229 0
-12 8 -10 -228 230 0
-12 8 -10 -228 -230 0
-18 14 -4 231 232 0
-18 14 -4 231 -232 0
-18 14 -4 -231 233 0
-18 14 -4 -231 -233 0
15 -9 13 234 235 0
15 -9 13 234 -235 0
15 -9 13 -234 236 0
15 -9 13 -234 -236 0
9 -5 -1 237 238 0
9 -5 -1 237 -238 0
9 -5 -1 -237 239 0
9 -5 -1 -237 -239 0
10 -19 -14 240 241 0
10 -19 -14 240 -241 0
10 -19 -14 -240 242 0
10 -19 -14 -240 -242 0
20 9 4 243 244 0
20 9 4 243 -244 0
20 9 4 -243 245 0
20 9 4 -243 -245 0
-9 -2 19 246 247 0
-9 -2 19 246 -247 0
-9 -2 19 -246 248 0
-9 -2 19 -246 -248 0
-5 13 -17 249 250 0
-5 13 -17 249 -250 0
-5 13 -17 -249 251 0
-5 13 -17 -249 -251 0
2 -10 -18 252 253 0
2 -10 -18 252 -253 0
2 -10 -18 -252 254 0
2 -10 -18 -252 -254 0
-18 3 11 255 256 0
-18 3 11 255 -256 0
-18 3 11 -255 257 0
-18 3 11 -255 -257 0
7 -9 17 258 259 0
7 -9 17 258 -259 0
7 -9 17 -258 260 0
7 -9 17 -258 -260 0
-15 -6 -3 261 262 0
-15 -6 -3 261 -262 0
-15 -6 -3 -261 263 0
-15 -6 -3 -261 -263 0
-2 3 -13 264 265 0
-2 3 -13 264 -265 0
-2 3 -13 -264 266 0
-2 3 -13 -264 -266 0
12 3 -2 267 268 0
12 3 -2 267 -268 0
12 3 -2 -267 269 0
12 3 -2 -267 -269 0
-2 -3 17 270 271 0
-2 -3 17 270 -271 0
-2 -3 17 -270 272 0
-2 -3 17 -270 -272 0
20 -15 -16 273 274 0
20 -15 -16 273 -274 0
20 -15 -16 -273 275 0
20 -15 -16 -273 -275 0
-5 -17 -19 276 277 0
-5 -17 -19 276 -277 0
-5 -17 -19 -276 278 0
-5 -17 -19 -276 -278 0
-20 -18 11 279 280 0
-20 -18 11 279 -280 0
-20 -18 11 -279 281 0
-20 -18 11 -279 -281 0
-9 1 -5 282 283 0
-9 1 -5 282 -283 0
-9 1 -5 -282 284 0
-9 1 -5 -282 -284 0
-19 9 17 285 286 0
-19 9 17 285 -286 0
-19 9 17 -285 287 0
-19 9 17 -285 -287 0
12 -2 17 288 289 0
12 -2 17 288 -289 0
12 -2 17 -288 290 0
12 -2 17 -288 -290 0
4 -16 -5 291 292 0
4 -16 -5 291 -292 0
4 -16 -5 -291 293 0
4 -16 -5 -291 -293 0
294 295 297 301 309 0
294 295 297 301 -309 0
294 295 297 -301 310 0
294 295 297 -301 -310 0
294 295 -297 302 311 0
294 295 -297 302 -311 0
294 295 -297 -302 312 0
294 295 -297 -302 -312 0
294 -295 298 303 313 0
294 -295 298 303 -313 0
294 -295 298 -303 314 0
294 -295 298 -303 -314 0
294 -295 -298 304 315 0
294 -295 -298 304 -315 0
294 -295 -298 -304 316 0
294 -295 -298 -304 -316 0
-294 296 299 305 317 0
-294 296 299 305 -317 0
-294 296 299 -305 318 0
-294 296 299 -305 -318 0
-294 296 -299 306 319 0
-294 296 -299 306 -319 0
-294 296 -299 -306 320 0
-294 296 -299 -306 -320 0
-294 -296 300 307 321 0
-294 -296 300 307 -321 0
-294 -296 300 -307 322 0
-294 -296 300 -307 -322 0
-294 -296 -300 308 323 0
-294 -296 -300 308 -323 0
-294 -296 -300 -308 324 0
-294 -296 -300 -308 -324 0
325 326 328 332 340 0
325 326 328 332 -340 0
325 326 328 -332 341 0
325 326 328 -332 -341 0
325 326 -328 333 342 0
325 326 -328 333 -342 0
325 326 -328 -333 343 0
325 326 -328 -333 -343 0
325 -326 329 334 344 0
325 -326 329 334 -344 0
325 -326 329 -334 345 0
325 -326 329 -334 -345 0
325 -326 -329 335 346 0
325 -326 -329 335 -346 0
325 -326 -329 -335 347 0
325 -326 -329 -335 -347 0
-325 327 330 336 348 0
-325 327 330 336 -348 0
-325 327 330 -336 349 0
-325 327 330 -336 -349 0
-325 327 -330 337 350 0
-325 327 -330 337 -350 0
-325 327 -330 -337 351 0
-325 327 -330 -337 -351 0
-325 -327 331 338 352 0
-325 -327 331 338 -352 0
-325 -327 331 -338 353 0
-325 -327 331 -338 -353 0
-325 -327 -331 339 354 0
-325 -327 -331 339 -354 0
-325 -327 -331 -339 355 0
-325 -327 -331 -339 -355 0
356 357 359 363 371 0
356 357 359 363 -371 0
356 357 359 -363 372 0
356 357 359 -363 -372 0
356 357 -359 364 373 0
356 357 -359 364 -373 0
356 357 -359 -364 374 0
356 357 -359 -364 -374 0
356 -357 360 365 375 0
356 -357 360 365 -375 0
356 -357 360 -365 376 0
356 -357 360 -365 -376 0
356 -357 -360 366 377 0
356 -357 -360 366 -377 0
356 -357 -360 -366 378 0
356 -357 -360 -366 -378 0
-356 358 361 367 379 0
-356 358 361 367 -379 0
-356 358 361 -367 380 0
-356 358 361 -367 -380 0
-356 358 -361 368 381 0
-356 358 -361 368 -381 0
-356 358 -361 -368 382 0
-356 358 -361 -368 -382 0
-356 -358 362 369 383 0
-356 -358 362 369 -383 0
-356 -358 362 -369 384 0
-356 -358 362 -369 -384 0
-356 -358 -362 370 385 0
-356 -358 -362 370 -385 0
-356 -358 -362 -370 386 0
-356 -358 -362 -370 -386 0

